\Problem name: 

Minimize
OBJROW: -7 x(2) -19 x(3) -37 x(4) -44 x(5) -35 x(6) -43 x(7) -40 x(8)
Subject To
constr(0):  3.60000 x(2) + 2.30000 x(3) + 4.10000 x(4) + 3.15000 x(5) + 2.80000 x(6) + 2.65000 x(7) + 3.10000 x(8) <= 15
Bounds
 0 <= x(1) <= 1
 0 <= x(2) <= 1
 0 <= x(3) <= 1
 0 <= x(4) <= 1
 0 <= x(5) <= 1
 0 <= x(6) <= 1
 0 <= x(7) <= 1
 0 <= x(8) <= 1
Integers
x(1) x(2) x(3) x(4) x(5) x(6) x(7) x(8) 
End
